NAME : n150w20.003.959.tour
COMMENT : Length = 959
COMMENT : Found by LKH [Keld Helsgaun] Tue Nov  7 19:36:32 2017
TYPE : TOUR
DIMENSION : 151
TOUR_SECTION
1
65
41
132
83
29
149
79
31
8
141
142
98
138
30
130
94
28
39
33
95
35
37
12
69
86
10
82
84
20
99
66
54
32
25
90
55
85
52
27
150
45
127
60
117
80
87
6
53
4
18
47
105
70
143
108
77
104
34
124
71
64
101
40
23
103
19
43
51
38
100
74
5
121
58
116
129
15
92
56
62
11
3
97
63
76
107
109
44
147
144
91
140
114
42
137
119
59
88
16
111
9
21
115
118
24
148
26
75
2
110
145
136
113
68
61
93
46
22
128
112
131
57
126
49
146
89
7
134
14
73
72
120
81
67
106
96
13
123
133
102
48
139
17
125
78
135
122
151
50
36
-1
EOF
